results_rootrelaxation/bin012_050_039.srr.sol
solution status: optimal solution found
objective value:                                    0
_var0_                              0.136237671445915 	(obj:0)
_var276_                            0.477325493894669 	(obj:0)
_var361_                           0.0452105511352808 	(obj:0)
_var540_                             0.15309982240862 	(obj:0)
_var640_                             0.13529453078752 	(obj:0)
_var718_                            0.219904281256586 	(obj:0)
_var719_                            0.108266527536694 	(obj:0)
_var721_                           0.0874191056217197 	(obj:0)
_var724_                            0.486700713375541 	(obj:0)
_var725_                           0.0733000892973601 	(obj:0)
_var726_                            0.134977474991724 	(obj:0)
_var729_                            0.082757582750559 	(obj:0)
_var730_                           0.0528901241132989 	(obj:0)
_var731_                            0.210952471730864 	(obj:0)
_var735_                          8.82940190820303e-05 	(obj:0)
_var736_                             0.23424001926415 	(obj:0)
_var739_                           0.0394313062498083 	(obj:0)
_var741_                            0.118526693890657 	(obj:0)
_var743_                            0.223363801458858 	(obj:0)
_var744_                            0.116548105190285 	(obj:0)
_var746_                          0.00366821515646831 	(obj:0)
_var749_                             0.10257356998806 	(obj:0)
_var750_                            0.256425898241143 	(obj:0)
_var753_                            0.281136183491027 	(obj:0)
_var756_                            0.552987448202514 	(obj:0)
_var758_                            0.108338768097761 	(obj:0)
_var762_                            0.172915809646121 	(obj:0)
_var763_                            0.172050929595556 	(obj:0)
_var764_                            0.487079976321147 	(obj:0)
_var770_                           0.0870037223955721 	(obj:0)
_var771_                           0.0534800886953558 	(obj:0)
_var772_                            0.179778662947621 	(obj:0)
_var773_                           0.0470968324520648 	(obj:0)
_var776_                            0.177414791254879 	(obj:0)
_var777_                            0.350623576509775 	(obj:0)
_var778_                           0.0163504469884718 	(obj:0)
_var779_                            0.379654248648001 	(obj:0)
_var780_                            0.138964752626244 	(obj:0)
_var781_                           0.0523904602325767 	(obj:0)
_var787_                           0.0656285430483505 	(obj:0)
_var791_                             0.25786870278026 	(obj:0)
_var792_                             0.31417821345079 	(obj:0)
_var794_                            0.222342400192641 	(obj:0)
_var795_                            0.337343353366712 	(obj:0)
_var796_                            0.363767345259716 	(obj:0)
_var799_                            0.246137638335659 	(obj:0)
_var800_                            0.360251637954387 	(obj:0)
_var809_                            0.156990779295054 	(obj:0)
_var810_                           0.0810940431637332 	(obj:0)
_var813_                            0.138912578887698 	(obj:0)
_var814_                            0.411450128929338 	(obj:0)
_var815_                            0.213521025013295 	(obj:0)
_var816_                           0.0478774318480567 	(obj:0)
_var817_                          0.00374446908204262 	(obj:0)
_var818_                           0.0508152146648305 	(obj:0)
_var819_                           0.0208313684569616 	(obj:0)
_var820_                            0.289182979321139 	(obj:0)
_var821_                            0.177898401677587 	(obj:0)
_var822_                           0.0704104668546279 	(obj:0)
_var823_                           0.0846779776656277 	(obj:0)
_var827_                             0.11884976973321 	(obj:0)
_var829_                            0.133683164939246 	(obj:0)
_var832_                           0.0276982351229611 	(obj:0)
_var835_                           0.0483750890465258 	(obj:0)
