results_rootrelaxation/bin012_050_039.srr.log
SCIP version 8.0.3.5 [precision: 8 byte] [memory: block] [mode: optimized] [LP solver: Soplex 6.0.1.3] [GitHash: 438792519e]
Copyright (c) 2002-2023 Zuse Institute Berlin (ZIB)

External libraries: 
  Readline 8.1         GNU library for command line editing (gnu.org/s/readline)
  Soplex 6.0.1.3       Linear Programming Solver developed at Zuse Institute Berlin (soplex.zib.de) [GitHash: 713be0fe]
  CppAD 20180000.0     Algorithmic Differentiation of C++ algorithms developed by B. Bell (github.com/coin-or/CppAD)
  ZLIB 1.2.11          General purpose compression library by J. Gailly and M. Adler (zlib.net)
  bliss 0.77           Computing Graph Automorphism Groups by T. Junttila and P. Kaski (www.tcs.hut.fi/Software/bliss/)

user parameter file <scip.set> not found - using default parameters

srr/relaxation = TRUE

read problem <instances/bin012_050_039.srr>
============

Original problem: 
original problem has 0 variables (0 bin, 0 int, 0 impl, 0 cont) and 77 constraints

presolving:
presolving (1 rounds: 1 fast, 1 medium, 1 exhaustive):
 0 deleted vars, 0 deleted constraints, 0 added constraints, 0 tightened bounds, 0 added holes, 0 changed sides, 0 changed coefficients
 0 implications, 0 cliques
presolved problem has 0 variables (0 bin, 0 int, 0 impl, 0 cont) and 77 constraints
     77 constraints of type <linear>
Presolving Time: 0.00

 time | node  | left  |LP iter|LP it/n|mem/heur|mdpt |vars |cons |rows |cuts |sepa|confs|strbr|  dualbound   | primalbound  |  gap   | compl. 
  0.0s|     1 |     0 |     1 |     - |   710k |   0 |   1 |  77 |  77 |   0 |  0 |   0 |   0 |      --      |      --      |    Inf | unknown
r 0.1s|     1 |     0 |  1260 |     - |simplero|   0 | 718 |  77 |  77 |   0 |  0 |   0 |   0 |      --      | 1.309698e+01 |    Inf | unknown
r 0.1s|     1 |     0 |  1304 |     - |simplero|   0 | 729 |  77 |  77 |   0 |  0 |   0 |   0 |      --      | 1.133343e+01 |    Inf | unknown
r 0.1s|     1 |     0 |  1367 |     - |simplero|   0 | 740 |  77 |  77 |   0 |  0 |   0 |   0 |      --      | 9.390704e+00 |    Inf | unknown
r 0.1s|     1 |     0 |  1419 |     - |simplero|   0 | 751 |  77 |  77 |   0 |  0 |   0 |   0 |      --      | 7.303963e+00 |    Inf | unknown
r 0.1s|     1 |     0 |  1472 |     - |simplero|   0 | 762 |  77 |  77 |   0 |  0 |   0 |   0 |      --      | 6.287883e+00 |    Inf | unknown
r 0.1s|     1 |     0 |  1548 |     - |simplero|   0 | 773 |  77 |  77 |   0 |  0 |   0 |   0 |      --      | 4.512645e+00 |    Inf | unknown
r 0.1s|     1 |     0 |  1591 |     - |simplero|   0 | 784 |  77 |  77 |   0 |  0 |   0 |   0 |      --      | 3.634405e+00 |    Inf | unknown
r 0.1s|     1 |     0 |  1609 |     - |simplero|   0 | 784 |  77 |  77 |   0 |  0 |   0 |   0 |      --      | 3.429744e+00 |    Inf | unknown
r 0.1s|     1 |     0 |  1611 |     - |simplero|   0 | 784 |  77 |  77 |   0 |  0 |   0 |   0 |      --      | 3.424050e+00 |    Inf | unknown
r 0.1s|     1 |     0 |  1657 |     - |simplero|   0 | 795 |  77 |  77 |   0 |  0 |   0 |   0 |      --      | 2.316215e+00 |    Inf | unknown
r 0.1s|     1 |     0 |  1666 |     - |simplero|   0 | 795 |  77 |  77 |   0 |  0 |   0 |   0 |      --      | 2.296164e+00 |    Inf | unknown
r 0.1s|     1 |     0 |  1712 |     - |simplero|   0 | 806 |  77 |  77 |   0 |  0 |   0 |   0 |      --      | 1.172283e+00 |    Inf | unknown
r 0.1s|     1 |     0 |  1746 |     - |simplero|   0 | 817 |  77 |  77 |   0 |  0 |   0 |   0 |      --      | 8.037180e-01 |    Inf | unknown
r 0.1s|     1 |     0 |  1759 |     - |simplero|   0 | 817 |  77 |  77 |   0 |  0 |   0 |   0 |      --      | 7.642471e-01 |    Inf | unknown
 time | node  | left  |LP iter|LP it/n|mem/heur|mdpt |vars |cons |rows |cuts |sepa|confs|strbr|  dualbound   | primalbound  |  gap   | compl. 
r 0.1s|     1 |     0 |  1767 |     - |simplero|   0 | 817 |  77 |  77 |   0 |  0 |   0 |   0 |      --      | 7.584567e-01 |    Inf | unknown
r 0.1s|     1 |     0 |  1770 |     - |simplero|   0 | 817 |  77 |  77 |   0 |  0 |   0 |   0 |      --      | 7.560700e-01 |    Inf | unknown
r 0.1s|     1 |     0 |  1798 |     - |simplero|   0 | 828 |  77 |  77 |   0 |  0 |   0 |   0 |      --      | 1.997425e-01 |    Inf | unknown
r 0.1s|     1 |     0 |  1803 |     - |simplero|   0 | 828 |  77 |  77 |   0 |  0 |   0 |   0 |      --      | 1.898237e-01 |    Inf | unknown
r 0.1s|     1 |     0 |  1809 |     - |simplero|   0 | 839 |  77 |  77 |   0 |  0 |   0 |   0 |      --      | 0.000000e+00 |    Inf | unknown
  0.1s|     1 |     0 |  1809 |     - |  4085k |   0 | 839 |  77 |  77 |   0 |  0 |   0 |   0 | 0.000000e+00 | 0.000000e+00 |   0.00%| unknown
  0.1s|     1 |     0 |  1809 |     - |  4085k |   0 | 839 |  77 |  77 |   0 |  0 |   0 |   0 | 0.000000e+00 | 0.000000e+00 |   0.00%| unknown

SCIP Status        : problem is solved [optimal solution found]
Solving Time (sec) : 0.09
Solving Nodes      : 1
Primal Bound       : +0.00000000000000e+00 (19 solutions)
Dual Bound         : +0.00000000000000e+00
Gap                : 0.00 %

written transformed problem to file <results_rootrelaxation/bin012_050_039.srr.lp>
written transformed problem to file <results_rootrelaxation/bin012_050_039.srr.cip>


SCIP version 8.0.3.5 [precision: 8 byte] [memory: block] [mode: optimized] [LP solver: Soplex 6.0.1.3] [GitHash: 438792519e]
Copyright (c) 2002-2023 Zuse Institute Berlin (ZIB)

External libraries: 
  Readline 8.1         GNU library for command line editing (gnu.org/s/readline)
  Soplex 6.0.1.3       Linear Programming Solver developed at Zuse Institute Berlin (soplex.zib.de) [GitHash: 713be0fe]
  CppAD 20180000.0     Algorithmic Differentiation of C++ algorithms developed by B. Bell (github.com/coin-or/CppAD)
  ZLIB 1.2.11          General purpose compression library by J. Gailly and M. Adler (zlib.net)
  bliss 0.77           Computing Graph Automorphism Groups by T. Junttila and P. Kaski (www.tcs.hut.fi/Software/bliss/)

user parameter file <scip.set> not found - using default parameters

srr/relaxation = TRUE

read problem <instances/bin012_050_039.srr>
============

Original problem: 
original problem has 0 variables (0 bin, 0 int, 0 impl, 0 cont) and 77 constraints

presolving:
presolving (1 rounds: 1 fast, 1 medium, 1 exhaustive):
 0 deleted vars, 0 deleted constraints, 0 added constraints, 0 tightened bounds, 0 added holes, 0 changed sides, 0 changed coefficients
 0 implications, 0 cliques
presolved problem has 0 variables (0 bin, 0 int, 0 impl, 0 cont) and 77 constraints
     77 constraints of type <linear>
Presolving Time: 0.00

 time | node  | left  |LP iter|LP it/n|mem/heur|mdpt |vars |cons |rows |cuts |sepa|confs|strbr|  dualbound   | primalbound  |  gap   | compl. 
  0.0s|     1 |     0 |     1 |     - |   710k |   0 |   1 |  77 |  77 |   0 |  0 |   0 |   0 |      --      |      --      |    Inf | unknown
r 0.1s|     1 |     0 |  1260 |     - |simplero|   0 | 718 |  77 |  77 |   0 |  0 |   0 |   0 |      --      | 1.309698e+01 |    Inf | unknown
r 0.1s|     1 |     0 |  1304 |     - |simplero|   0 | 729 |  77 |  77 |   0 |  0 |   0 |   0 |      --      | 1.133343e+01 |    Inf | unknown
r 0.1s|     1 |     0 |  1367 |     - |simplero|   0 | 740 |  77 |  77 |   0 |  0 |   0 |   0 |      --      | 9.390704e+00 |    Inf | unknown
r 0.1s|     1 |     0 |  1419 |     - |simplero|   0 | 751 |  77 |  77 |   0 |  0 |   0 |   0 |      --      | 7.303963e+00 |    Inf | unknown
r 0.1s|     1 |     0 |  1472 |     - |simplero|   0 | 762 |  77 |  77 |   0 |  0 |   0 |   0 |      --      | 6.287883e+00 |    Inf | unknown
r 0.1s|     1 |     0 |  1548 |     - |simplero|   0 | 773 |  77 |  77 |   0 |  0 |   0 |   0 |      --      | 4.512645e+00 |    Inf | unknown
r 0.1s|     1 |     0 |  1591 |     - |simplero|   0 | 784 |  77 |  77 |   0 |  0 |   0 |   0 |      --      | 3.634405e+00 |    Inf | unknown
r 0.1s|     1 |     0 |  1609 |     - |simplero|   0 | 784 |  77 |  77 |   0 |  0 |   0 |   0 |      --      | 3.429744e+00 |    Inf | unknown
r 0.1s|     1 |     0 |  1611 |     - |simplero|   0 | 784 |  77 |  77 |   0 |  0 |   0 |   0 |      --      | 3.424050e+00 |    Inf | unknown
r 0.1s|     1 |     0 |  1657 |     - |simplero|   0 | 795 |  77 |  77 |   0 |  0 |   0 |   0 |      --      | 2.316215e+00 |    Inf | unknown
r 0.1s|     1 |     0 |  1666 |     - |simplero|   0 | 795 |  77 |  77 |   0 |  0 |   0 |   0 |      --      | 2.296164e+00 |    Inf | unknown
r 0.1s|     1 |     0 |  1712 |     - |simplero|   0 | 806 |  77 |  77 |   0 |  0 |   0 |   0 |      --      | 1.172283e+00 |    Inf | unknown
r 0.1s|     1 |     0 |  1746 |     - |simplero|   0 | 817 |  77 |  77 |   0 |  0 |   0 |   0 |      --      | 8.037180e-01 |    Inf | unknown
r 0.1s|     1 |     0 |  1759 |     - |simplero|   0 | 817 |  77 |  77 |   0 |  0 |   0 |   0 |      --      | 7.642471e-01 |    Inf | unknown
 time | node  | left  |LP iter|LP it/n|mem/heur|mdpt |vars |cons |rows |cuts |sepa|confs|strbr|  dualbound   | primalbound  |  gap   | compl. 
r 0.1s|     1 |     0 |  1767 |     - |simplero|   0 | 817 |  77 |  77 |   0 |  0 |   0 |   0 |      --      | 7.584567e-01 |    Inf | unknown
r 0.1s|     1 |     0 |  1770 |     - |simplero|   0 | 817 |  77 |  77 |   0 |  0 |   0 |   0 |      --      | 7.560700e-01 |    Inf | unknown
r 0.1s|     1 |     0 |  1798 |     - |simplero|   0 | 828 |  77 |  77 |   0 |  0 |   0 |   0 |      --      | 1.997425e-01 |    Inf | unknown
r 0.1s|     1 |     0 |  1803 |     - |simplero|   0 | 828 |  77 |  77 |   0 |  0 |   0 |   0 |      --      | 1.898237e-01 |    Inf | unknown
r 0.1s|     1 |     0 |  1809 |     - |simplero|   0 | 839 |  77 |  77 |   0 |  0 |   0 |   0 |      --      | 0.000000e+00 |    Inf | unknown
  0.1s|     1 |     0 |  1809 |     - |  4085k |   0 | 839 |  77 |  77 |   0 |  0 |   0 |   0 | 0.000000e+00 | 0.000000e+00 |   0.00%| unknown
  0.1s|     1 |     0 |  1809 |     - |  4085k |   0 | 839 |  77 |  77 |   0 |  0 |   0 |   0 | 0.000000e+00 | 0.000000e+00 |   0.00%| unknown

SCIP Status        : problem is solved [optimal solution found]
Solving Time (sec) : 0.09
Solving Nodes      : 1
Primal Bound       : +0.00000000000000e+00 (19 solutions)
Dual Bound         : +0.00000000000000e+00
Gap                : 0.00 %

written transformed problem to file <results_rootrelaxation/bin012_050_039.srr.lp>
written transformed problem to file <results_rootrelaxation/bin012_050_039.srr.cip>

written solution information to file <results_rootrelaxation/bin012_050_039.srr.sol>



